75 126 170 60 111 73 189 120 100 194 197 6 131 66 74 158 35 128 107 198 175 196 190 28 127 57 102 110 192 21 184 172 41 22 109 167 10 88 152 69 48 169 97 138 139 89 16 93 166 96 104 31 161 125 199 155 0 49 168 174 129 80 33 148 185 37 65 7 51 137 179 119 45 145 124 108 133 156 79 193 173 64 159 85 95 188 142 151 15 62 153 53 90 14 157 183 106 68 171 136 83 164 23 26 87 178 12 180 78 146 40 72 38 187 122 121 70 3 92 59 43 154 42 76 63 149 58 84 17 5 39 82 2 115 176 52 123 4 117 144 135 18 195 36 61 34 118 50 191 1 99 29 143 47 140 91 116 177 54 112 86 25 162 130 147 94 55 150 27 11 114 132 46 20 181 9 8 101 141 19 24 113 163 81 182 105 103 186 13 67 32 165 44 98 77 30 56 71 134 160